(declare-fun ADDR!1 () Int)
(declare-fun ap!<root>@6 () Int)
(declare-fun fp!<root> () Int)
(declare-fun prime () Int)
(assert (and (<= 0 ADDR!1) (< ADDR!1 prime)))
(assert (and (<= 0 ap!<root>@6) (< ap!<root>@6 prime)))
(assert (and (<= 0 fp!<root>) (< fp!<root> prime)))
(assert (= prime 3618502788666131213697322783095070105623107215331596699973092056135872020481))
(assert (= ADDR!1 (mod (+ fp!<root> (- 1)) prime)))
(assert (<= fp!<root> ap!<root>@6))
(assert (= ap!<root>@6 fp!<root>))
(assert true)
(assert false)
(check-sat)